n_machines = 3;
n_resources = 6;
n_jobs = 120;
horizon = 643;
LB = 214;
n_jobs_per_resource = [20, 20, 20, 20, 20, 20];
duration = [9, 2, 6, 9, 7, 3, 6, 8, 3, 6, 7, 8, 3, 1, 6, 8, 9, 5, 2, 6, 3, 6, 8, 3, 6, 7, 9, 9, 4, 3, 1, 5, 3, 7, 5, 6, 3, 5, 9, 7, 8, 7, 7, 6, 9, 4, 3, 7, 3, 1, 2, 3, 2, 6, 8, 6, 4, 8, 4, 9, 8, 7, 5, 7, 2, 4, 8, 9, 5, 9, 1, 8, 7, 2, 4, 4, 1, 9, 8, 6, 6, 5, 6, 9, 6, 8, 8, 3, 1, 3, 5, 8, 7, 7, 6, 7, 5, 3, 4, 1, 7, 4, 6, 2, 5, 1, 3, 4, 5, 3, 6, 4, 5, 1, 7, 9, 1, 3, 6, 9]